(set-logic QF_S)
(set-option :strings-exp true)
(set-option :produce-models true)
(declare-fun sigmaStar_0 () String)
(declare-fun sigmaStar_1 () String)
(declare-fun literal_10 () String)
(assert (= literal_10 "\x3c\x70\x20\x61\x6c\x69\x67\x6e\x3d\x22\x63\x65\x6e\x74\x65\x72\x22\x3e\x3c\x61\x20\x68\x72\x65\x66\x3d\x22\x69\x6e\x64\x65\x78\x2e\x70\x68\x70\x3f\x69\x64\x3d\x69\x64\x22\x3e\x62\x61\x63\x6b\x74\x6f\x70\x61\x72\x74\x69\x63\x69\x70\x61\x6e\x74\x73\x3c\x2f\x61\x3e\x3c\x2f\x70\x3e"))
(assert (str.in.re literal_10 (re.++ (re.* re.allchar) (re.++ (str.to.re "\x5c\x3c\x53\x43\x52\x49\x50\x54") (re.* re.allchar)))))
(check-sat)
(get-model)
